1 10 100 1
0 200
  1 41 49 0 10 1 1 1
  2 35 17 0  7 1 1 1
  3 55 45 0 13 1 1 1
  4 55 20 0 19 1 1 1
  5 15 30 0 26 1 1 1
  6 25 30 0  3 1 1 1
  7 20 50 0  5 1 1 1
  8 10 43 0  9 1 1 1
  9 55 60 0 16 1 1 1
 10 30 60 0 16 1 1 1
 11 20 65 0 12 1 1 1
 12 50 35 0 19 1 1 1
 13 30 25 0 23 1 1 1
 14 15 10 0 20 1 1 1
 15 30  5 0  8 1 1 1
 16 10 20 0 19 1 1 1
 17  5 30 0  2 1 1 1
 18 20 40 0 12 1 1 1
 19 15 60 0 17 1 1 1
 20 45 65 0  9 1 1 1
 21 45 20 0 11 1 1 1
 22 45 10 0 18 1 1 1
 23 55  5 0 29 1 1 1
 24 65 35 0  3 1 1 1
 25 65 20 0  6 1 1 1
 26 45 30 0 17 1 1 1
 27 35 40 0 16 1 1 1
 28 41 37 0 16 1 1 1
 29 64 42 0  9 1 1 1
 30 40 60 0 21 1 1 1
 31 31 52 0 27 1 1 1
 32 35 69 0 23 1 1 1
 33 53 52 0 11 1 1 1
 34 65 55 0 14 1 1 1
 35 63 65 0  8 1 1 1
 36  2 60 0  5 1 1 1
 37 20 20 0  8 1 1 1
 38  5  5 0 16 1 1 1
 39 60 12 0 31 1 1 1
 40 40 25 0  9 1 1 1
 41 42  7 0  5 1 1 1
 42 24 12 0  5 1 1 1
 43 23  3 0  7 1 1 1
 44 11 14 0 18 1 1 1
 45  6 38 0 16 1 1 1
 46  2 48 0  1 1 1 1
 47  8 56 0 27 1 1 1
 48 13 52 0 36 1 1 1
 49  6 68 0 30 1 1 1
 50 47 47 0 13 1 1 1
 51 49 58 0 10 1 1 1
 52 27 43 0  9 1 1 1
 53 37 31 0 14 1 1 1
 54 57 29 0 18 1 1 1
 55 63 23 0  2 1 1 1
 56 53 12 0  6 1 1 1
 57 32 12 0  7 1 1 1
 58 36 26 0 18 1 1 1
 59 21 24 0 28 1 1 1
 60 17 34 0  3 1 1 1
 61 12 24 0 13 1 1 1
 62 24 58 0 19 1 1 1
 63 27 69 0 10 1 1 1
 64 15 77 0  9 1 1 1
 65 62 77 0 20 1 1 1
 66 49 73 0 25 1 1 1
 67 67  5 0 25 1 1 1
 68 56 39 0 36 1 1 1
 69 37 47 0  6 1 1 1
 70 37 56 0  5 1 1 1
 71 57 68 0 15 1 1 1
 72 47 16 0 25 1 1 1
 73 44 17 0  9 1 1 1
 74 46 13 0  8 1 1 1
 75 49 11 0 18 1 1 1
 76 49 42 0 13 1 1 1
 77 53 43 0 14 1 1 1
 78 61 52 0  3 1 1 1
 79 57 48 0 23 1 1 1
 80 56 37 0  6 1 1 1
 81 55 54 0 26 1 1 1
 82 15 47 0 16 1 1 1
 83 14 37 0 11 1 1 1
 84 11 31 0  7 1 1 1
 85 16 22 0 41 1 1 1
 86  4 18 0 35 1 1 1
 87 28 18 0 26 1 1 1
 88 26 52 0  9 1 1 1
 89 26 35 0 15 1 1 1
 90 31 67 0  3 1 1 1
 91 15 19 0  1 1 1 1
 92 22 22 0  2 1 1 1
 93 18 24 0 22 1 1 1
 94 26 27 0 27 1 1 1
 95 25 24 0 20 1 1 1
 96 22 27 0 11 1 1 1
 97 25 21 0 12 1 1 1
 98 19 21 0 10 1 1 1
 99 20 26 0  9 1 1 1
100 18 18 0 17 1 1 1
  0 35 35 0  0 0 0

